4 
5  36 52 
6  07 22 38 48 53 58 
7  03 08 13 18 23 28 33 38 43 48 53 58 
8  03 08 13 18 23 28 33 38 43 48 53 58 
9  03 08 13 18 23 28 33 38 43 48 53 58 
10  03 09 15 23 30 38 45 53 
11  00 08 15 23 30 38 45 53 
12  00 08 15 23 30 38 45 53 
13  00 08 15 25 32 40 47 54 
14  02 10 17 25 32 40 47 54 
15  02 10 17 25 30 35 39 45 50 55 
16  00 05 09 15 20 24 30 35 39 45 50 54 
17  00 05 09 15 20 24 30 35 39 45 50 54 
18  00 05 09 15 20 25 30 35 40 45 50 55 
19  00 05 10 15 19 25 31 38 45 53 
20  00 08 15 23 29 36 44 52 59 
21  10 25 32 40 55 
22  10 25 35 50 
23  05 20 34 
0 
